words_hard_train/4199.qaiger
aag 19 9 0 1 10
2
4
8
12
14
20
22
26
32
39
6 3 5
10 6 9
16 13 14
18 10 17
24 21 22
28 24 27
30 12 15
34 31 33
36 28 34
38 18 36
i0 2 y1[4]
i1 2 y1[5]
i2 2 y1[6]
i3 2 y1[7]
i4 1 x1[0]
i5 2 y1[0]
i6 2 y1[1]
i7 2 y1[2]
i8 2 y1[3]
o0 bool[0]
c
simplified
  !=
    << 7
      1 x1
    subtract
      1
      subtract
        2 y1
        1
