words_hard_train/4199.qaiger.qdimacs
p cnf 19 31
a 7 0
e 1 2 3 4 5 6 8 9 10 11 12 13 14 15 16 17 18 19 0
1 2 3 0
-1 -3 0
-2 -3 0
-3 4 5 0
3 -5 0
-4 -5 0
6 -7 8 0
-6 -8 0
7 -8 0
-5 8 9 0
5 -9 0
-8 -9 0
10 -11 12 0
-10 -12 0
11 -12 0
-12 13 14 0
12 -14 0
-13 -14 0
-6 7 15 0
6 -15 0
-7 -15 0
15 16 17 0
-15 -17 0
-16 -17 0
-14 -17 18 0
14 -18 0
17 -18 0
-9 -18 19 0
9 -19 0
18 -19 0
-19 0
